Route #1: 55 76 134 65 128 131 94 133 108 93 79 121 74 122 80
Route #2: 71 75 51 124 28 116 35 132 39 70 95 109 10 125
Route #3: 4 103 135 41 38 18 48 120 12 15 136 34 82 92
Route #4: 21 46 111 36 59 81 42 32 98 14 11 110
Route #5: 112 106 83 107 78 44 47 56 19 2 22 104 64
Route #6: 89 63 5 24 27 23 113 138 115 25 86 119 33 17
Route #7: 30 73 118 13 91 114 97 6 7 62 20 67 49 66 45
Route #8: 96 127 53 126 26 37 130 54 50 3 100 88 99
Route #9: 72 101 68 43 60 61 16 9 58 40 52 85 31 8
Route #10: 90 105 87 102 129 117 69 84 137 29 139 123 77 57
Cost 23676
